1600 3120
1 2 2
1 41 1
2 3 3
2 42 1
3 4 4
3 43 5
4 5 2
4 44 4
5 6 4
5 45 5
6 7 1
6 46 4
7 8 4
7 47 1
8 9 5
8 48 3
9 10 4
9 49 2
10 11 4
10 50 3
11 12 5
11 51 3
12 13 4
12 52 5
13 14 2
13 53 5
14 15 5
14 54 2
15 16 5
15 55 3
16 17 4
16 56 4
17 18 3
17 57 5
18 19 5
18 58 2
19 20 4
19 59 4
20 21 4
20 60 4
21 22 4
21 61 4
22 23 2
22 62 4
23 24 1
23 63 3
24 25 5
24 64 3
25 26 2
25 65 1
26 27 5
26 66 4
27 28 3
27 67 2
28 29 2
28 68 3
29 30 3
29 69 5
30 31 5
30 70 2
31 32 2
31 71 2
32 33 3
32 72 4
33 34 3
33 73 2
34 35 3
34 74 3
35 36 5
35 75 5
36 37 2
36 76 1
37 38 1
37 77 5
38 39 1
38 78 4
39 40 2
39 79 4
40 80 3
41 42 5
41 81 3
42 43 2
42 82 5
43 44 3
43 83 3
44 45 5
44 84 3
45 46 1
45 85 2
46 47 2
46 86 3
47 48 2
47 87 2
48 49 5
48 88 4
49 50 4
49 89 2
50 51 3
50 90 3
51 52 5
51 91 2
52 53 1
52 92 2
53 54 2
53 93 3
54 55 1
54 94 4
55 56 1
55 95 2
56 57 4
56 96 3
57 58 3
57 97 1
58 59 2
58 98 1
59 60 3
59 99 3
60 61 5
60 100 2
61 62 3
61 101 1
62 63 3
62 102 5
63 64 5
63 103 5
64 65 3
64 104 2
65 66 5
65 105 1
66 67 2
66 106 4
67 68 1
67 107 2
68 69 4
68 108 3
69 70 4
69 109 5
70 71 4
70 110 5
71 72 2
71 111 2
72 73 5
72 112 5
73 74 4
73 113 1
74 75 4
74 114 2
75 76 3
75 115 2
76 77 4
76 116 5
77 78 4
77 117 3
78 79 1
78 118 1
79 80 1
79 119 2
80 120 1
81 82 2
81 121 4
82 83 2
82 122 4
83 84 5
83 123 5
84 85 4
84 124 3
85 86 1
85 125 4
86 87 3
86 126 1
87 88 4
87 127 1
88 89 3
88 128 1
89 90 1
89 129 1
90 91 1
90 130 1
91 92 2
91 131 5
92 93 5
92 132 1
93 94 4
93 133 4
94 95 4
94 134 3
95 96 3
95 135 2
96 97 5
96 136 1
97 98 4
97 137 1
98 99 2
98 138 5
99 100 4
99 139 1
100 101 1
100 140 5
101 102 3
101 141 4
102 103 4
102 142 5
103 104 5
103 143 2
104 105 5
104 144 4
105 106 2
105 145 3
106 107 4
106 146 4
107 108 1
107 147 2
108 109 5
108 148 4
109 110 5
109 149 1
110 111 3
110 150 1
111 112 1
111 151 5
112 113 3
112 152 4
113 114 1
113 153 5
114 115 1
114 154 2
115 116 3
115 155 5
116 117 4
116 156 3
117 118 4
117 157 2
118 119 2
118 158 4
119 120 5
119 159 1
120 160 4
121 122 2
121 161 2
122 123 5
122 162 5
123 124 4
123 163 4
124 125 3
124 164 1
125 126 5
125 165 4
126 127 4
126 166 2
127 128 4
127 167 3
128 129 2
128 168 3
129 130 2
129 169 4
130 131 5
130 170 4
131 132 5
131 171 2
132 133 5
132 172 1
133 134 4
133 173 5
134 135 4
134 174 1
135 136 3
135 175 3
136 137 1
136 176 1
137 138 2
137 177 4
138 139 4
138 178 2
139 140 5
139 179 2
140 141 2
140 180 4
141 142 1
141 181 1
142 143 1
142 182 2
143 144 5
143 183 4
144 145 4
144 184 4
145 146 3
145 185 2
146 147 3
146 186 1
147 148 1
147 187 2
148 149 4
148 188 5
149 150 4
149 189 3
150 151 2
150 190 4
151 152 2
151 191 2
152 153 5
152 192 1
153 154 1
153 193 1
154 155 3
154 194 2
155 156 4
155 195 2
156 157 2
156 196 5
157 158 1
157 197 4
158 159 3
158 198 3
159 160 5
159 199 1
160 200 2
161 162 1
161 201 3
162 163 2
162 202 3
163 164 1
163 203 5
164 165 4
164 204 4
165 166 1
165 205 3
166 167 4
166 206 3
167 168 5
167 207 4
168 169 1
168 208 2
169 170 2
169 209 3
170 171 2
170 210 3
171 172 3
171 211 2
172 173 2
172 212 1
173 174 3
173 213 2
174 175 3
174 214 4
175 176 5
175 215 2
176 177 5
176 216 2
177 178 2
177 217 5
178 179 4
178 218 2
179 180 3
179 219 4
180 181 4
180 220 1
181 182 4
181 221 4
182 183 3
182 222 4
183 184 1
183 223 5
184 185 5
184 224 5
185 186 1
185 225 3
186 187 5
186 226 4
187 188 1
187 227 2
188 189 2
188 228 5
189 190 5
189 229 4
190 191 3
190 230 5
191 192 5
191 231 4
192 193 1
192 232 5
193 194 4
193 233 4
194 195 1
194 234 2
195 196 5
195 235 2
196 197 2
196 236 2
197 198 3
197 237 5
198 199 1
198 238 4
199 200 3
199 239 3
200 240 1
201 202 3
201 241 5
202 203 2
202 242 2
203 204 2
203 243 1
204 205 4
204 244 5
205 206 4
205 245 3
206 207 2
206 246 5
207 208 1
207 247 2
208 209 4
208 248 1
209 210 2
209 249 1
210 211 3
210 250 4
211 212 1
211 251 2
212 213 5
212 252 4
213 214 2
213 253 3
214 215 2
214 254 5
215 216 4
215 255 2
216 217 3
216 256 2
217 218 5
217 257 2
218 219 5
218 258 3
219 220 4
219 259 2
220 221 3
220 260 2
221 222 4
221 261 2
222 223 2
222 262 5
223 224 3
223 263 1
224 225 2
224 264 5
225 226 3
225 265 1
226 227 2
226 266 4
227 228 4
227 267 5
228 229 1
228 268 4
229 230 3
229 269 2
230 231 3
230 270 2
231 232 2
231 271 1
232 233 5
232 272 5
233 234 3
233 273 5
234 235 5
234 274 4
235 236 1
235 275 4
236 237 5
236 276 2
237 238 5
237 277 5
238 239 5
238 278 5
239 240 5
239 279 2
240 280 1
241 242 4
241 281 4
242 243 4
242 282 4
243 244 1
243 283 5
244 245 3
244 284 5
245 246 2
245 285 3
246 247 4
246 286 4
247 248 2
247 287 5
248 249 2
248 288 1
249 250 1
249 289 2
250 251 5
250 290 1
251 252 4
251 291 3
252 253 2
252 292 1
253 254 1
253 293 2
254 255 3
254 294 5
255 256 1
255 295 3
256 257 3
256 296 2
257 258 3
257 297 3
258 259 4
258 298 2
259 260 5
259 299 4
260 261 4
260 300 2
261 262 2
261 301 1
262 263 1
262 302 4
263 264 2
263 303 1
264 265 5
264 304 3
265 266 1
265 305 1
266 267 5
266 306 3
267 268 2
267 307 2
268 269 2
268 308 3
269 270 3
269 309 4
270 271 4
270 310 4
271 272 4
271 311 2
272 273 5
272 312 1
273 274 4
273 313 5
274 275 5
274 314 2
275 276 5
275 315 2
276 277 1
276 316 4
277 278 5
277 317 5
278 279 1
278 318 1
279 280 4
279 319 4
280 320 1
281 282 3
281 321 5
282 283 3
282 322 3
283 284 3
283 323 1
284 285 2
284 324 2
285 286 1
285 325 4
286 287 2
286 326 4
287 288 3
287 327 1
288 289 2
288 328 2
289 290 1
289 329 5
290 291 5
290 330 3
291 292 3
291 331 3
292 293 3
292 332 2
293 294 5
293 333 3
294 295 1
294 334 5
295 296 1
295 335 4
296 297 1
296 336 1
297 298 5
297 337 5
298 299 2
298 338 1
299 300 2
299 339 2
300 301 1
300 340 2
301 302 5
301 341 4
302 303 5
302 342 5
303 304 1
303 343 4
304 305 2
304 344 1
305 306 1
305 345 5
306 307 2
306 346 4
307 308 5
307 347 5
308 309 3
308 348 1
309 310 3
309 349 2
310 311 4
310 350 3
311 312 1
311 351 1
312 313 3
312 352 2
313 314 5
313 353 3
314 315 2
314 354 5
315 316 5
315 355 5
316 317 4
316 356 1
317 318 1
317 357 2
318 319 5
318 358 4
319 320 2
319 359 3
320 360 3
321 322 4
321 361 4
322 323 1
322 362 4
323 324 2
323 363 3
324 325 3
324 364 1
325 326 5
325 365 4
326 327 4
326 366 1
327 328 4
327 367 2
328 329 1
328 368 1
329 330 5
329 369 5
330 331 3
330 370 1
331 332 4
331 371 1
332 333 2
332 372 1
333 334 1
333 373 1
334 335 4
334 374 5
335 336 2
335 375 2
336 337 5
336 376 4
337 338 4
337 377 1
338 339 5
338 378 5
339 340 2
339 379 2
340 341 2
340 380 4
341 342 1
341 381 1
342 343 4
342 382 5
343 344 3
343 383 4
344 345 5
344 384 4
345 346 1
345 385 1
346 347 1
346 386 5
347 348 2
347 387 5
348 349 1
348 388 3
349 350 3
349 389 5
350 351 5
350 390 5
351 352 1
351 391 2
352 353 1
352 392 5
353 354 3
353 393 3
354 355 4
354 394 5
355 356 2
355 395 2
356 357 2
356 396 3
357 358 1
357 397 2
358 359 4
358 398 1
359 360 2
359 399 1
360 400 3
361 362 1
361 401 2
362 363 4
362 402 2
363 364 5
363 403 1
364 365 1
364 404 1
365 366 4
365 405 2
366 367 5
366 406 1
367 368 3
367 407 2
368 369 1
368 408 1
369 370 2
369 409 3
370 371 1
370 410 5
371 372 5
371 411 1
372 373 4
372 412 5
373 374 4
373 413 5
374 375 1
374 414 5
375 376 1
375 415 1
376 377 1
376 416 4
377 378 3
377 417 3
378 379 1
378 418 5
379 380 1
379 419 4
380 381 2
380 420 5
381 382 3
381 421 5
382 383 5
382 422 4
383 384 1
383 423 4
384 385 4
384 424 2
385 386 5
385 425 5
386 387 2
386 426 5
387 388 1
387 427 5
388 389 2
388 428 4
389 390 5
389 429 3
390 391 1
390 430 5
391 392 1
391 431 4
392 393 2
392 432 1
393 394 2
393 433 5
394 395 5
394 434 2
395 396 5
395 435 2
396 397 2
396 436 2
397 398 4
397 437 3
398 399 1
398 438 2
399 400 4
399 439 4
400 440 2
401 402 5
401 441 2
402 403 3
402 442 4
403 404 5
403 443 4
404 405 1
404 444 2
405 406 5
405 445 2
406 407 2
406 446 2
407 408 4
407 447 2
408 409 2
408 448 4
409 410 1
409 449 5
410 411 5
410 450 4
411 412 1
411 451 1
412 413 3
412 452 3
413 414 3
413 453 1
414 415 4
414 454 1
415 416 5
415 455 2
416 417 2
416 456 4
417 418 3
417 457 5
418 419 1
418 458 2
419 420 3
419 459 2
420 421 5
420 460 4
421 422 5
421 461 3
422 423 2
422 462 4
423 424 5
423 463 2
424 425 4
424 464 1
425 426 4
425 465 1
426 427 1
426 466 4
427 428 4
427 467 3
428 429 2
428 468 2
429 430 1
429 469 4
430 431 5
430 470 1
431 432 2
431 471 3
432 433 2
432 472 2
433 434 3
433 473 2
434 435 3
434 474 3
435 436 5
435 475 5
436 437 2
436 476 3
437 438 5
437 477 5
438 439 3
438 478 5
439 440 2
439 479 5
440 480 2
441 442 3
441 481 1
442 443 2
442 482 3
443 444 2
443 483 4
444 445 2
444 484 3
445 446 1
445 485 3
446 447 2
446 486 5
447 448 4
447 487 1
448 449 3
448 488 3
449 450 2
449 489 5
450 451 3
450 490 1
451 452 4
451 491 5
452 453 1
452 492 1
453 454 4
453 493 1
454 455 4
454 494 2
455 456 4
455 495 5
456 457 2
456 496 2
457 458 4
457 497 3
458 459 3
458 498 1
459 460 3
459 499 5
460 461 1
460 500 1
461 462 2
461 501 1
462 463 4
462 502 4
463 464 1
463 503 2
464 465 2
464 504 4
465 466 1
465 505 2
466 467 2
466 506 5
467 468 2
467 507 4
468 469 3
468 508 3
469 470 5
469 509 2
470 471 1
470 510 1
471 472 5
471 511 5
472 473 5
472 512 3
473 474 2
473 513 3
474 475 5
474 514 1
475 476 3
475 515 4
476 477 5
476 516 5
477 478 4
477 517 5
478 479 3
478 518 1
479 480 2
479 519 5
480 520 3
481 482 1
481 521 1
482 483 1
482 522 4
483 484 4
483 523 5
484 485 5
484 524 4
485 486 1
485 525 5
486 487 1
486 526 5
487 488 1
487 527 5
488 489 3
488 528 3
489 490 4
489 529 1
490 491 4
490 530 4
491 492 1
491 531 4
492 493 2
492 532 5
493 494 2
493 533 5
494 495 1
494 534 4
495 496 4
495 535 1
496 497 1
496 536 1
497 498 4
497 537 5
498 499 1
498 538 4
499 500 5
499 539 3
500 501 1
500 540 4
501 502 4
501 541 2
502 503 3
502 542 2
503 504 1
503 543 5
504 505 3
504 544 3
505 506 5
505 545 2
506 507 2
506 546 3
507 508 5
507 547 1
508 509 2
508 548 1
509 510 4
509 549 3
510 511 1
510 550 5
511 512 5
511 551 4
512 513 5
512 552 4
513 514 5
513 553 1
514 515 5
514 554 1
515 516 3
515 555 5
516 517 1
516 556 3
517 518 3
517 557 2
518 519 2
518 558 1
519 520 5
519 559 5
520 560 1
521 522 4
521 561 4
522 523 4
522 562 3
523 524 3
523 563 2
524 525 2
524 564 4
525 526 2
525 565 5
526 527 1
526 566 4
527 528 1
527 567 1
528 529 5
528 568 4
529 530 5
529 569 3
530 531 1
530 570 5
531 532 4
531 571 4
532 533 5
532 572 3
533 534 2
533 573 3
534 535 1
534 574 1
535 536 4
535 575 1
536 537 5
536 576 4
537 538 5
537 577 1
538 539 3
538 578 4
539 540 1
539 579 1
540 541 3
540 580 3
541 542 1
541 581 4
542 543 5
542 582 1
543 544 2
543 583 3
544 545 4
544 584 4
545 546 1
545 585 1
546 547 3
546 586 1
547 548 3
547 587 5
548 549 1
548 588 1
549 550 5
549 589 1
550 551 3
550 590 2
551 552 2
551 591 5
552 553 2
552 592 3
553 554 4
553 593 2
554 555 3
554 594 4
555 556 4
555 595 2
556 557 1
556 596 1
557 558 5
557 597 3
558 559 2
558 598 3
559 560 3
559 599 2
560 600 4
561 562 2
561 601 3
562 563 2
562 602 5
563 564 1
563 603 1
564 565 4
564 604 1
565 566 3
565 605 1
566 567 4
566 606 5
567 568 2
567 607 3
568 569 4
568 608 1
569 570 4
569 609 1
570 571 2
570 610 2
571 572 4
571 611 3
572 573 1
572 612 2
573 574 5
573 613 3
574 575 1
574 614 3
575 576 1
575 615 4
576 577 4
576 616 5
577 578 5
577 617 5
578 579 4
578 618 4
579 580 5
579 619 2
580 581 1
580 620 2
581 582 1
581 621 2
582 583 4
582 622 3
583 584 5
583 623 3
584 585 5
584 624 4
585 586 4
585 625 1
586 587 4
586 626 1
587 588 2
587 627 3
588 589 4
588 628 5
589 590 2
589 629 1
590 591 3
590 630 2
591 592 3
591 631 3
592 593 3
592 632 2
593 594 1
593 633 1
594 595 1
594 634 4
595 596 1
595 635 4
596 597 4
596 636 3
597 598 5
597 637 2
598 599 2
598 638 5
599 600 2
599 639 2
600 640 5
601 602 3
601 641 1
602 603 2
602 642 2
603 604 3
603 643 1
604 605 3
604 644 4
605 606 3
605 645 2
606 607 2
606 646 1
607 608 3
607 647 5
608 609 1
608 648 5
609 610 1
609 649 2
610 611 4
610 650 4
611 612 4
611 651 2
612 613 3
612 652 4
613 614 5
613 653 3
614 615 2
614 654 2
615 616 4
615 655 5
616 617 3
616 656 5
617 618 3
617 657 3
618 619 2
618 658 5
619 620 4
619 659 2
620 621 2
620 660 5
621 622 3
621 661 5
622 623 4
622 662 2
623 624 3
623 663 3
624 625 1
624 664 1
625 626 5
625 665 3
626 627 3
626 666 3
627 628 3
627 667 4
628 629 4
628 668 2
629 630 3
629 669 4
630 631 2
630 670 5
631 632 3
631 671 1
632 633 3
632 672 1
633 634 4
633 673 1
634 635 5
634 674 5
635 636 5
635 675 4
636 637 2
636 676 1
637 638 3
637 677 3
638 639 4
638 678 5
639 640 2
639 679 1
640 680 4
641 642 5
641 681 2
642 643 1
642 682 1
643 644 5
643 683 5
644 645 2
644 684 5
645 646 1
645 685 5
646 647 5
646 686 2
647 648 1
647 687 1
648 649 2
648 688 5
649 650 4
649 689 1
650 651 3
650 690 5
651 652 1
651 691 3
652 653 1
652 692 5
653 654 5
653 693 5
654 655 1
654 694 4
655 656 2
655 695 1
656 657 3
656 696 2
657 658 3
657 697 5
658 659 5
658 698 1
659 660 3
659 699 3
660 661 5
660 700 2
661 662 4
661 701 2
662 663 4
662 702 3
663 664 4
663 703 1
664 665 2
664 704 5
665 666 2
665 705 5
666 667 2
666 706 3
667 668 4
667 707 4
668 669 1
668 708 2
669 670 2
669 709 5
670 671 1
670 710 5
671 672 3
671 711 4
672 673 4
672 712 3
673 674 5
673 713 1
674 675 1
674 714 4
675 676 2
675 715 5
676 677 1
676 716 5
677 678 5
677 717 1
678 679 2
678 718 1
679 680 1
679 719 5
680 720 2
681 682 5
681 721 4
682 683 4
682 722 3
683 684 3
683 723 5
684 685 1
684 724 1
685 686 2
685 725 4
686 687 4
686 726 4
687 688 3
687 727 2
688 689 5
688 728 3
689 690 3
689 729 2
690 691 4
690 730 1
691 692 4
691 731 3
692 693 3
692 732 5
693 694 1
693 733 1
694 695 1
694 734 3
695 696 1
695 735 4
696 697 3
696 736 2
697 698 1
697 737 5
698 699 3
698 738 2
699 700 4
699 739 5
700 701 2
700 740 1
701 702 4
701 741 1
702 703 1
702 742 1
703 704 5
703 743 5
704 705 2
704 744 3
705 706 5
705 745 3
706 707 1
706 746 4
707 708 4
707 747 3
708 709 1
708 748 1
709 710 2
709 749 4
710 711 1
710 750 4
711 712 1
711 751 5
712 713 5
712 752 5
713 714 2
713 753 4
714 715 4
714 754 2
715 716 2
715 755 4
716 717 1
716 756 2
717 718 4
717 757 4
718 719 3
718 758 5
719 720 3
719 759 3
720 760 5
721 722 5
721 761 3
722 723 3
722 762 1
723 724 5
723 763 5
724 725 2
724 764 2
725 726 3
725 765 5
726 727 1
726 766 5
727 728 2
727 767 4
728 729 5
728 768 3
729 730 1
729 769 1
730 731 5
730 770 3
731 732 2
731 771 5
732 733 1
732 772 1
733 734 2
733 773 4
734 735 2
734 774 1
735 736 4
735 775 2
736 737 5
736 776 1
737 738 3
737 777 3
738 739 4
738 778 3
739 740 2
739 779 2
740 741 2
740 780 4
741 742 2
741 781 4
742 743 4
742 782 1
743 744 1
743 783 2
744 745 1
744 784 1
745 746 4
745 785 5
746 747 4
746 786 2
747 748 5
747 787 5
748 749 3
748 788 1
749 750 4
749 789 1
750 751 2
750 790 5
751 752 1
751 791 1
752 753 5
752 792 5
753 754 3
753 793 2
754 755 4
754 794 3
755 756 3
755 795 1
756 757 5
756 796 5
757 758 4
757 797 4
758 759 5
758 798 4
759 760 2
759 799 1
760 800 1
761 762 4
761 801 2
762 763 2
762 802 5
763 764 2
763 803 1
764 765 5
764 804 4
765 766 5
765 805 5
766 767 3
766 806 2
767 768 5
767 807 2
768 769 3
768 808 3
769 770 4
769 809 5
770 771 3
770 810 4
771 772 1
771 811 3
772 773 3
772 812 3
773 774 1
773 813 3
774 775 1
774 814 1
775 776 4
775 815 4
776 777 1
776 816 4
777 778 1
777 817 4
778 779 3
778 818 1
779 780 5
779 819 3
780 781 3
780 820 2
781 782 4
781 821 2
782 783 4
782 822 2
783 784 5
783 823 2
784 785 2
784 824 3
785 786 5
785 825 1
786 787 3
786 826 5
787 788 2
787 827 3
788 789 4
788 828 4
789 790 1
789 829 5
790 791 1
790 830 4
791 792 3
791 831 5
792 793 1
792 832 1
793 794 1
793 833 4
794 795 2
794 834 2
795 796 1
795 835 4
796 797 5
796 836 1
797 798 5
797 837 2
798 799 1
798 838 4
799 800 4
799 839 4
800 840 5
801 802 2
801 841 5
802 803 1
802 842 1
803 804 2
803 843 2
804 805 1
804 844 4
805 806 4
805 845 4
806 807 4
806 846 4
807 808 4
807 847 2
808 809 2
808 848 2
809 810 2
809 849 3
810 811 5
810 850 2
811 812 2
811 851 4
812 813 1
812 852 4
813 814 1
813 853 3
814 815 3
814 854 3
815 816 5
815 855 5
816 817 2
816 856 3
817 818 2
817 857 3
818 819 4
818 858 1
819 820 5
819 859 5
820 821 2
820 860 5
821 822 1
821 861 3
822 823 2
822 862 5
823 824 5
823 863 1
824 825 2
824 864 3
825 826 3
825 865 5
826 827 1
826 866 5
827 828 1
827 867 3
828 829 5
828 868 4
829 830 5
829 869 4
830 831 2
830 870 1
831 832 4
831 871 3
832 833 3
832 872 1
833 834 4
833 873 4
834 835 5
834 874 2
835 836 1
835 875 2
836 837 2
836 876 2
837 838 5
837 877 4
838 839 1
838 878 3
839 840 1
839 879 4
840 880 3
841 842 3
841 881 4
842 843 3
842 882 5
843 844 4
843 883 3
844 845 3
844 884 1
845 846 4
845 885 4
846 847 2
846 886 2
847 848 5
847 887 1
848 849 3
848 888 2
849 850 5
849 889 4
850 851 3
850 890 5
851 852 2
851 891 5
852 853 5
852 892 3
853 854 4
853 893 4
854 855 5
854 894 2
855 856 1
855 895 5
856 857 1
856 896 3
857 858 2
857 897 4
858 859 4
858 898 1
859 860 5
859 899 1
860 861 4
860 900 2
861 862 5
861 901 1
862 863 3
862 902 5
863 864 3
863 903 4
864 865 1
864 904 5
865 866 4
865 905 3
866 867 4
866 906 5
867 868 5
867 907 4
868 869 3
868 908 1
869 870 2
869 909 3
870 871 1
870 910 5
871 872 2
871 911 2
872 873 4
872 912 5
873 874 5
873 913 2
874 875 5
874 914 1
875 876 2
875 915 2
876 877 4
876 916 1
877 878 2
877 917 1
878 879 3
878 918 1
879 880 3
879 919 5
880 920 1
881 882 3
881 921 3
882 883 2
882 922 3
883 884 3
883 923 4
884 885 2
884 924 3
885 886 2
885 925 5
886 887 3
886 926 1
887 888 5
887 927 1
888 889 1
888 928 4
889 890 5
889 929 3
890 891 4
890 930 3
891 892 3
891 931 4
892 893 1
892 932 5
893 894 3
893 933 4
894 895 2
894 934 5
895 896 3
895 935 1
896 897 3
896 936 3
897 898 5
897 937 2
898 899 2
898 938 3
899 900 5
899 939 4
900 901 3
900 940 1
901 902 3
901 941 3
902 903 2
902 942 5
903 904 2
903 943 1
904 905 5
904 944 5
905 906 4
905 945 1
906 907 4
906 946 2
907 908 4
907 947 1
908 909 1
908 948 2
909 910 1
909 949 3
910 911 2
910 950 1
911 912 1
911 951 5
912 913 3
912 952 5
913 914 4
913 953 2
914 915 4
914 954 3
915 916 4
915 955 3
916 917 4
916 956 1
917 918 2
917 957 3
918 919 1
918 958 3
919 920 4
919 959 1
920 960 2
921 922 2
921 961 2
922 923 2
922 962 5
923 924 3
923 963 2
924 925 4
924 964 4
925 926 2
925 965 1
926 927 2
926 966 4
927 928 1
927 967 4
928 929 4
928 968 4
929 930 5
929 969 1
930 931 1
930 970 2
931 932 3
931 971 2
932 933 1
932 972 3
933 934 2
933 973 2
934 935 2
934 974 3
935 936 5
935 975 3
936 937 3
936 976 1
937 938 1
937 977 2
938 939 3
938 978 1
939 940 3
939 979 2
940 941 5
940 980 3
941 942 4
941 981 1
942 943 2
942 982 5
943 944 2
943 983 4
944 945 1
944 984 2
945 946 5
945 985 2
946 947 4
946 986 1
947 948 4
947 987 5
948 949 3
948 988 3
949 950 5
949 989 1
950 951 2
950 990 5
951 952 3
951 991 1
952 953 1
952 992 3
953 954 5
953 993 3
954 955 3
954 994 5
955 956 4
955 995 2
956 957 2
956 996 2
957 958 2
957 997 4
958 959 1
958 998 1
959 960 1
959 999 4
960 1000 4
961 962 5
961 1001 2
962 963 5
962 1002 1
963 964 3
963 1003 2
964 965 3
964 1004 2
965 966 3
965 1005 3
966 967 1
966 1006 2
967 968 5
967 1007 1
968 969 5
968 1008 5
969 970 1
969 1009 4
970 971 3
970 1010 2
971 972 1
971 1011 5
972 973 1
972 1012 5
973 974 3
973 1013 5
974 975 5
974 1014 4
975 976 2
975 1015 2
976 977 2
976 1016 2
977 978 2
977 1017 3
978 979 4
978 1018 3
979 980 2
979 1019 2
980 981 4
980 1020 4
981 982 2
981 1021 4
982 983 2
982 1022 3
983 984 4
983 1023 5
984 985 1
984 1024 2
985 986 3
985 1025 4
986 987 4
986 1026 4
987 988 2
987 1027 4
988 989 4
988 1028 1
989 990 2
989 1029 1
990 991 5
990 1030 4
991 992 1
991 1031 3
992 993 5
992 1032 5
993 994 2
993 1033 3
994 995 2
994 1034 4
995 996 1
995 1035 2
996 997 1
996 1036 3
997 998 3
997 1037 1
998 999 5
998 1038 1
999 1000 2
999 1039 5
1000 1040 1
1001 1002 4
1001 1041 2
1002 1003 3
1002 1042 2
1003 1004 2
1003 1043 5
1004 1005 1
1004 1044 5
1005 1006 4
1005 1045 2
1006 1007 4
1006 1046 5
1007 1008 2
1007 1047 3
1008 1009 1
1008 1048 5
1009 1010 2
1009 1049 2
1010 1011 5
1010 1050 4
1011 1012 5
1011 1051 4
1012 1013 4
1012 1052 4
1013 1014 4
1013 1053 2
1014 1015 5
1014 1054 2
1015 1016 3
1015 1055 5
1016 1017 5
1016 1056 4
1017 1018 5
1017 1057 3
1018 1019 3
1018 1058 5
1019 1020 2
1019 1059 2
1020 1021 3
1020 1060 4
1021 1022 3
1021 1061 1
1022 1023 4
1022 1062 1
1023 1024 5
1023 1063 4
1024 1025 5
1024 1064 3
1025 1026 2
1025 1065 4
1026 1027 5
1026 1066 1
1027 1028 4
1027 1067 1
1028 1029 1
1028 1068 2
1029 1030 3
1029 1069 4
1030 1031 4
1030 1070 2
1031 1032 2
1031 1071 5
1032 1033 1
1032 1072 3
1033 1034 3
1033 1073 5
1034 1035 3
1034 1074 4
1035 1036 5
1035 1075 5
1036 1037 3
1036 1076 5
1037 1038 5
1037 1077 5
1038 1039 1
1038 1078 3
1039 1040 4
1039 1079 3
1040 1080 3
1041 1042 2
1041 1081 3
1042 1043 1
1042 1082 2
1043 1044 2
1043 1083 5
1044 1045 3
1044 1084 4
1045 1046 1
1045 1085 3
1046 1047 3
1046 1086 3
1047 1048 3
1047 1087 4
1048 1049 2
1048 1088 4
1049 1050 4
1049 1089 5
1050 1051 4
1050 1090 4
1051 1052 1
1051 1091 2
1052 1053 4
1052 1092 4
1053 1054 4
1053 1093 5
1054 1055 2
1054 1094 4
1055 1056 5
1055 1095 1
1056 1057 5
1056 1096 3
1057 1058 1
1057 1097 2
1058 1059 3
1058 1098 5
1059 1060 2
1059 1099 4
1060 1061 1
1060 1100 5
1061 1062 2
1061 1101 2
1062 1063 2
1062 1102 3
1063 1064 2
1063 1103 5
1064 1065 5
1064 1104 3
1065 1066 3
1065 1105 5
1066 1067 1
1066 1106 1
1067 1068 5
1067 1107 1
1068 1069 2
1068 1108 1
1069 1070 4
1069 1109 1
1070 1071 5
1070 1110 4
1071 1072 3
1071 1111 5
1072 1073 3
1072 1112 3
1073 1074 1
1073 1113 1
1074 1075 5
1074 1114 2
1075 1076 4
1075 1115 2
1076 1077 4
1076 1116 3
1077 1078 2
1077 1117 2
1078 1079 1
1078 1118 5
1079 1080 1
1079 1119 2
1080 1120 4
1081 1082 1
1081 1121 2
1082 1083 4
1082 1122 3
1083 1084 2
1083 1123 4
1084 1085 2
1084 1124 1
1085 1086 3
1085 1125 5
1086 1087 5
1086 1126 2
1087 1088 4
1087 1127 3
1088 1089 4
1088 1128 1
1089 1090 2
1089 1129 2
1090 1091 2
1090 1130 2
1091 1092 4
1091 1131 4
1092 1093 5
1092 1132 2
1093 1094 2
1093 1133 3
1094 1095 2
1094 1134 2
1095 1096 4
1095 1135 2
1096 1097 4
1096 1136 5
1097 1098 5
1097 1137 1
1098 1099 4
1098 1138 1
1099 1100 2
1099 1139 4
1100 1101 3
1100 1140 1
1101 1102 1
1101 1141 1
1102 1103 5
1102 1142 4
1103 1104 1
1103 1143 4
1104 1105 1
1104 1144 2
1105 1106 1
1105 1145 2
1106 1107 5
1106 1146 1
1107 1108 3
1107 1147 4
1108 1109 4
1108 1148 1
1109 1110 3
1109 1149 1
1110 1111 1
1110 1150 2
1111 1112 3
1111 1151 1
1112 1113 3
1112 1152 4
1113 1114 4
1113 1153 5
1114 1115 3
1114 1154 2
1115 1116 3
1115 1155 2
1116 1117 5
1116 1156 2
1117 1118 5
1117 1157 3
1118 1119 1
1118 1158 5
1119 1120 2
1119 1159 4
1120 1160 1
1121 1122 4
1121 1161 3
1122 1123 1
1122 1162 4
1123 1124 1
1123 1163 1
1124 1125 5
1124 1164 4
1125 1126 5
1125 1165 3
1126 1127 2
1126 1166 5
1127 1128 2
1127 1167 1
1128 1129 4
1128 1168 5
1129 1130 4
1129 1169 1
1130 1131 4
1130 1170 2
1131 1132 2
1131 1171 4
1132 1133 3
1132 1172 2
1133 1134 2
1133 1173 3
1134 1135 2
1134 1174 1
1135 1136 1
1135 1175 1
1136 1137 2
1136 1176 5
1137 1138 4
1137 1177 4
1138 1139 4
1138 1178 2
1139 1140 5
1139 1179 1
1140 1141 3
1140 1180 1
1141 1142 3
1141 1181 4
1142 1143 1
1142 1182 5
1143 1144 3
1143 1183 4
1144 1145 3
1144 1184 2
1145 1146 5
1145 1185 2
1146 1147 2
1146 1186 5
1147 1148 3
1147 1187 4
1148 1149 2
1148 1188 1
1149 1150 5
1149 1189 2
1150 1151 2
1150 1190 5
1151 1152 5
1151 1191 5
1152 1153 4
1152 1192 2
1153 1154 5
1153 1193 5
1154 1155 3
1154 1194 4
1155 1156 2
1155 1195 5
1156 1157 4
1156 1196 4
1157 1158 5
1157 1197 5
1158 1159 5
1158 1198 2
1159 1160 1
1159 1199 3
1160 1200 5
1161 1162 2
1161 1201 4
1162 1163 3
1162 1202 5
1163 1164 5
1163 1203 1
1164 1165 1
1164 1204 4
1165 1166 3
1165 1205 1
1166 1167 3
1166 1206 1
1167 1168 3
1167 1207 3
1168 1169 5
1168 1208 3
1169 1170 2
1169 1209 2
1170 1171 5
1170 1210 1
1171 1172 5
1171 1211 3
1172 1173 5
1172 1212 3
1173 1174 1
1173 1213 3
1174 1175 5
1174 1214 1
1175 1176 3
1175 1215 1
1176 1177 4
1176 1216 3
1177 1178 4
1177 1217 4
1178 1179 1
1178 1218 5
1179 1180 1
1179 1219 3
1180 1181 5
1180 1220 2
1181 1182 2
1181 1221 2
1182 1183 3
1182 1222 3
1183 1184 3
1183 1223 2
1184 1185 5
1184 1224 3
1185 1186 5
1185 1225 1
1186 1187 4
1186 1226 5
1187 1188 4
1187 1227 1
1188 1189 1
1188 1228 2
1189 1190 3
1189 1229 5
1190 1191 2
1190 1230 2
1191 1192 2
1191 1231 5
1192 1193 4
1192 1232 1
1193 1194 1
1193 1233 1
1194 1195 4
1194 1234 3
1195 1196 3
1195 1235 4
1196 1197 2
1196 1236 4
1197 1198 1
1197 1237 4
1198 1199 4
1198 1238 3
1199 1200 5
1199 1239 3
1200 1240 4
1201 1202 3
1201 1241 1
1202 1203 2
1202 1242 5
1203 1204 4
1203 1243 1
1204 1205 5
1204 1244 3
1205 1206 5
1205 1245 4
1206 1207 5
1206 1246 1
1207 1208 4
1207 1247 1
1208 1209 2
1208 1248 4
1209 1210 4
1209 1249 4
1210 1211 4
1210 1250 3
1211 1212 2
1211 1251 5
1212 1213 1
1212 1252 3
1213 1214 3
1213 1253 5
1214 1215 4
1214 1254 3
1215 1216 4
1215 1255 3
1216 1217 4
1216 1256 4
1217 1218 1
1217 1257 1
1218 1219 5
1218 1258 3
1219 1220 1
1219 1259 2
1220 1221 2
1220 1260 5
1221 1222 2
1221 1261 2
1222 1223 2
1222 1262 4
1223 1224 2
1223 1263 2
1224 1225 1
1224 1264 1
1225 1226 3
1225 1265 4
1226 1227 2
1226 1266 4
1227 1228 2
1227 1267 3
1228 1229 2
1228 1268 4
1229 1230 2
1229 1269 1
1230 1231 3
1230 1270 5
1231 1232 4
1231 1271 3
1232 1233 3
1232 1272 4
1233 1234 2
1233 1273 1
1234 1235 4
1234 1274 5
1235 1236 1
1235 1275 1
1236 1237 4
1236 1276 3
1237 1238 5
1237 1277 3
1238 1239 5
1238 1278 5
1239 1240 3
1239 1279 5
1240 1280 4
1241 1242 2
1241 1281 4
1242 1243 4
1242 1282 3
1243 1244 5
1243 1283 4
1244 1245 3
1244 1284 2
1245 1246 1
1245 1285 5
1246 1247 1
1246 1286 3
1247 1248 3
1247 1287 3
1248 1249 2
1248 1288 1
1249 1250 1
1249 1289 3
1250 1251 4
1250 1290 3
1251 1252 2
1251 1291 5
1252 1253 3
1252 1292 1
1253 1254 2
1253 1293 4
1254 1255 1
1254 1294 3
1255 1256 5
1255 1295 5
1256 1257 4
1256 1296 2
1257 1258 4
1257 1297 3
1258 1259 2
1258 1298 5
1259 1260 1
1259 1299 4
1260 1261 2
1260 1300 4
1261 1262 5
1261 1301 3
1262 1263 5
1262 1302 5
1263 1264 3
1263 1303 1
1264 1265 1
1264 1304 4
1265 1266 2
1265 1305 4
1266 1267 4
1266 1306 5
1267 1268 5
1267 1307 5
1268 1269 4
1268 1308 1
1269 1270 2
1269 1309 5
1270 1271 2
1270 1310 1
1271 1272 3
1271 1311 4
1272 1273 1
1272 1312 3
1273 1274 3
1273 1313 4
1274 1275 4
1274 1314 4
1275 1276 1
1275 1315 2
1276 1277 1
1276 1316 4
1277 1278 5
1277 1317 1
1278 1279 3
1278 1318 1
1279 1280 1
1279 1319 2
1280 1320 3
1281 1282 5
1281 1321 3
1282 1283 5
1282 1322 2
1283 1284 4
1283 1323 3
1284 1285 3
1284 1324 3
1285 1286 1
1285 1325 5
1286 1287 2
1286 1326 1
1287 1288 5
1287 1327 4
1288 1289 2
1288 1328 4
1289 1290 1
1289 1329 2
1290 1291 4
1290 1330 1
1291 1292 2
1291 1331 4
1292 1293 1
1292 1332 4
1293 1294 5
1293 1333 5
1294 1295 3
1294 1334 3
1295 1296 5
1295 1335 1
1296 1297 1
1296 1336 5
1297 1298 1
1297 1337 2
1298 1299 2
1298 1338 2
1299 1300 4
1299 1339 4
1300 1301 1
1300 1340 5
1301 1302 4
1301 1341 4
1302 1303 2
1302 1342 3
1303 1304 5
1303 1343 4
1304 1305 4
1304 1344 4
1305 1306 2
1305 1345 4
1306 1307 4
1306 1346 2
1307 1308 3
1307 1347 5
1308 1309 1
1308 1348 5
1309 1310 3
1309 1349 3
1310 1311 1
1310 1350 3
1311 1312 2
1311 1351 5
1312 1313 5
1312 1352 3
1313 1314 5
1313 1353 3
1314 1315 4
1314 1354 5
1315 1316 1
1315 1355 3
1316 1317 5
1316 1356 4
1317 1318 2
1317 1357 1
1318 1319 3
1318 1358 3
1319 1320 1
1319 1359 2
1320 1360 3
1321 1322 1
1321 1361 3
1322 1323 2
1322 1362 3
1323 1324 2
1323 1363 5
1324 1325 2
1324 1364 1
1325 1326 1
1325 1365 3
1326 1327 4
1326 1366 1
1327 1328 1
1327 1367 4
1328 1329 2
1328 1368 5
1329 1330 1
1329 1369 4
1330 1331 4
1330 1370 1
1331 1332 4
1331 1371 2
1332 1333 1
1332 1372 3
1333 1334 2
1333 1373 3
1334 1335 5
1334 1374 4
1335 1336 4
1335 1375 5
1336 1337 3
1336 1376 2
1337 1338 3
1337 1377 4
1338 1339 3
1338 1378 4
1339 1340 5
1339 1379 1
1340 1341 2
1340 1380 1
1341 1342 4
1341 1381 3
1342 1343 3
1342 1382 3
1343 1344 2
1343 1383 4
1344 1345 3
1344 1384 2
1345 1346 1
1345 1385 1
1346 1347 5
1346 1386 4
1347 1348 3
1347 1387 5
1348 1349 4
1348 1388 1
1349 1350 2
1349 1389 3
1350 1351 4
1350 1390 1
1351 1352 3
1351 1391 1
1352 1353 1
1352 1392 5
1353 1354 3
1353 1393 5
1354 1355 5
1354 1394 3
1355 1356 1
1355 1395 3
1356 1357 1
1356 1396 2
1357 1358 1
1357 1397 1
1358 1359 5
1358 1398 5
1359 1360 4
1359 1399 2
1360 1400 3
1361 1362 3
1361 1401 3
1362 1363 1
1362 1402 4
1363 1364 4
1363 1403 5
1364 1365 1
1364 1404 2
1365 1366 2
1365 1405 5
1366 1367 1
1366 1406 1
1367 1368 4
1367 1407 4
1368 1369 3
1368 1408 1
1369 1370 4
1369 1409 5
1370 1371 4
1370 1410 2
1371 1372 3
1371 1411 3
1372 1373 1
1372 1412 2
1373 1374 4
1373 1413 3
1374 1375 3
1374 1414 2
1375 1376 1
1375 1415 2
1376 1377 1
1376 1416 3
1377 1378 2
1377 1417 1
1378 1379 1
1378 1418 2
1379 1380 1
1379 1419 5
1380 1381 2
1380 1420 1
1381 1382 3
1381 1421 2
1382 1383 3
1382 1422 3
1383 1384 1
1383 1423 1
1384 1385 5
1384 1424 2
1385 1386 3
1385 1425 2
1386 1387 4
1386 1426 2
1387 1388 5
1387 1427 5
1388 1389 3
1388 1428 3
1389 1390 2
1389 1429 3
1390 1391 2
1390 1430 2
1391 1392 2
1391 1431 2
1392 1393 1
1392 1432 2
1393 1394 4
1393 1433 5
1394 1395 2
1394 1434 1
1395 1396 1
1395 1435 3
1396 1397 4
1396 1436 3
1397 1398 1
1397 1437 5
1398 1399 2
1398 1438 3
1399 1400 4
1399 1439 5
1400 1440 4
1401 1402 4
1401 1441 2
1402 1403 4
1402 1442 3
1403 1404 2
1403 1443 4
1404 1405 1
1404 1444 2
1405 1406 2
1405 1445 2
1406 1407 2
1406 1446 3
1407 1408 2
1407 1447 3
1408 1409 1
1408 1448 1
1409 1410 5
1409 1449 4
1410 1411 5
1410 1450 3
1411 1412 4
1411 1451 3
1412 1413 2
1412 1452 5
1413 1414 5
1413 1453 5
1414 1415 2
1414 1454 4
1415 1416 4
1415 1455 5
1416 1417 1
1416 1456 2
1417 1418 4
1417 1457 4
1418 1419 1
1418 1458 3
1419 1420 5
1419 1459 4
1420 1421 4
1420 1460 5
1421 1422 5
1421 1461 4
1422 1423 5
1422 1462 5
1423 1424 1
1423 1463 4
1424 1425 1
1424 1464 5
1425 1426 1
1425 1465 5
1426 1427 3
1426 1466 5
1427 1428 3
1427 1467 4
1428 1429 5
1428 1468 2
1429 1430 3
1429 1469 2
1430 1431 3
1430 1470 2
1431 1432 2
1431 1471 3
1432 1433 3
1432 1472 5
1433 1434 3
1433 1473 2
1434 1435 1
1434 1474 2
1435 1436 1
1435 1475 2
1436 1437 2
1436 1476 4
1437 1438 4
1437 1477 4
1438 1439 3
1438 1478 5
1439 1440 5
1439 1479 5
1440 1480 4
1441 1442 4
1441 1481 3
1442 1443 5
1442 1482 4
1443 1444 1
1443 1483 3
1444 1445 3
1444 1484 4
1445 1446 5
1445 1485 5
1446 1447 5
1446 1486 4
1447 1448 4
1447 1487 5
1448 1449 3
1448 1488 3
1449 1450 5
1449 1489 3
1450 1451 1
1450 1490 5
1451 1452 4
1451 1491 3
1452 1453 1
1452 1492 4
1453 1454 4
1453 1493 4
1454 1455 3
1454 1494 1
1455 1456 3
1455 1495 1
1456 1457 1
1456 1496 5
1457 1458 1
1457 1497 3
1458 1459 2
1458 1498 4
1459 1460 3
1459 1499 1
1460 1461 2
1460 1500 4
1461 1462 3
1461 1501 1
1462 1463 3
1462 1502 2
1463 1464 5
1463 1503 4
1464 1465 2
1464 1504 5
1465 1466 1
1465 1505 3
1466 1467 3
1466 1506 4
1467 1468 4
1467 1507 2
1468 1469 4
1468 1508 2
1469 1470 1
1469 1509 1
1470 1471 5
1470 1510 2
1471 1472 2
1471 1511 2
1472 1473 4
1472 1512 1
1473 1474 3
1473 1513 4
1474 1475 4
1474 1514 4
1475 1476 4
1475 1515 4
1476 1477 1
1476 1516 1
1477 1478 5
1477 1517 4
1478 1479 3
1478 1518 1
1479 1480 4
1479 1519 3
1480 1520 3
1481 1482 1
1481 1521 4
1482 1483 3
1482 1522 3
1483 1484 5
1483 1523 1
1484 1485 4
1484 1524 4
1485 1486 4
1485 1525 4
1486 1487 2
1486 1526 3
1487 1488 4
1487 1527 3
1488 1489 1
1488 1528 5
1489 1490 2
1489 1529 4
1490 1491 5
1490 1530 4
1491 1492 2
1491 1531 5
1492 1493 1
1492 1532 4
1493 1494 1
1493 1533 5
1494 1495 5
1494 1534 5
1495 1496 5
1495 1535 2
1496 1497 5
1496 1536 3
1497 1498 3
1497 1537 3
1498 1499 5
1498 1538 1
1499 1500 3
1499 1539 5
1500 1501 5
1500 1540 4
1501 1502 2
1501 1541 3
1502 1503 3
1502 1542 1
1503 1504 4
1503 1543 4
1504 1505 4
1504 1544 4
1505 1506 1
1505 1545 1
1506 1507 3
1506 1546 3
1507 1508 2
1507 1547 4
1508 1509 1
1508 1548 2
1509 1510 2
1509 1549 3
1510 1511 5
1510 1550 4
1511 1512 5
1511 1551 2
1512 1513 1
1512 1552 3
1513 1514 1
1513 1553 5
1514 1515 2
1514 1554 5
1515 1516 2
1515 1555 1
1516 1517 4
1516 1556 4
1517 1518 3
1517 1557 4
1518 1519 3
1518 1558 5
1519 1520 2
1519 1559 4
1520 1560 3
1521 1522 5
1521 1561 5
1522 1523 5
1522 1562 5
1523 1524 2
1523 1563 2
1524 1525 5
1524 1564 2
1525 1526 3
1525 1565 1
1526 1527 3
1526 1566 1
1527 1528 5
1527 1567 1
1528 1529 1
1528 1568 1
1529 1530 1
1529 1569 4
1530 1531 4
1530 1570 5
1531 1532 5
1531 1571 2
1532 1533 5
1532 1572 4
1533 1534 1
1533 1573 1
1534 1535 2
1534 1574 1
1535 1536 4
1535 1575 4
1536 1537 1
1536 1576 5
1537 1538 3
1537 1577 4
1538 1539 4
1538 1578 1
1539 1540 3
1539 1579 2
1540 1541 5
1540 1580 3
1541 1542 1
1541 1581 5
1542 1543 3
1542 1582 4
1543 1544 3
1543 1583 2
1544 1545 2
1544 1584 2
1545 1546 4
1545 1585 1
1546 1547 3
1546 1586 4
1547 1548 3
1547 1587 1
1548 1549 2
1548 1588 5
1549 1550 2
1549 1589 1
1550 1551 1
1550 1590 5
1551 1552 1
1551 1591 2
1552 1553 2
1552 1592 2
1553 1554 5
1553 1593 4
1554 1555 3
1554 1594 2
1555 1556 5
1555 1595 2
1556 1557 3
1556 1596 1
1557 1558 4
1557 1597 5
1558 1559 5
1558 1598 3
1559 1560 1
1559 1599 2
1560 1600 1
1561 1562 2
1562 1563 2
1563 1564 1
1564 1565 1
1565 1566 3
1566 1567 4
1567 1568 2
1568 1569 4
1569 1570 3
1570 1571 1
1571 1572 3
1572 1573 3
1573 1574 3
1574 1575 1
1575 1576 2
1576 1577 2
1577 1578 4
1578 1579 4
1579 1580 4
1580 1581 4
1581 1582 1
1582 1583 2
1583 1584 1
1584 1585 4
1585 1586 1
1586 1587 2
1587 1588 5
1588 1589 4
1589 1590 4
1590 1591 2
1591 1592 2
1592 1593 1
1593 1594 3
1594 1595 3
1595 1596 3
1596 1597 1
1597 1598 5
1598 1599 5
1599 1600 5
